CapLotSizing_PM/src/Instancias/TCLSHT/12i6p2m/NBA04.OUT
 CG ITER, OVMR, OVMRUB =           1   15105.2001953   15105.2001953
 CG ITER, OVMR, OVMRUB =           2   15105.2001953   15105.2001953
 CG ITER, OVMR, OVMRUB =           3   15105.1992188   15105.2001953
 CG ITER, OVMR, OVMRUB =           4   15104.4970703   15105.2001953
 CG ITER, OVMR, OVMRUB =           5   14381.5917969   15105.2001953
 CG ITER, OVMR, OVMRUB =           6   14304.9726562   15041.8007812
 CG ITER, OVMR, OVMRUB =           7   14288.7587891   15041.8007812
 CG ITER, OVMR, OVMRUB =           8   14270.7988281   15041.8007812
 CG ITER, OVMR, OVMRUB =           9   14245.1142578   15041.8007812
 CG ITER, OVMR, OVMRUB =          10   14221.3134766   15041.8007812
 CG ITER, OVMR, OVMRUB =          11   14205.1865234   15041.8007812
 CG ITER, OVMR, OVMRUB =          12   14190.9072266   14669.8964844
 CG ITER, OVMR, OVMRUB =          13   14166.7958984   14669.8964844
 CG ITER, OVMR, OVMRUB =          14   14160.9404297   14669.8964844
 CG ITER, OVMR, OVMRUB =          15   14153.9960938   14669.8964844
 CG ITER, OVMR, OVMRUB =          16   14153.6025391   14669.8964844
 CG ITER, OVMR, OVMRUB =          17   14153.8037109   14669.8964844
 CG ITER, OVMR, OVMRUB =          18   14151.8916016   14669.8964844
 CG ITER, OVMR, OVMRUB =          19   14149.2226562   14569.1835938
 CG ITER, OVMR, OVMRUB =          20   14149.0488281   14569.1835938
 CG ITER, OVMR, OVMRUB =          21   14148.9804688   14569.1835938
 CG ITER, OVMR, OVMRUB =          22   14148.7539062   14569.1835938
 CG ITER, OVMR, OVMRUB =          23   14148.7724609   14569.1835938
 CG ITER, OVMR, OVMRUB =          24   14147.8349609   14569.1835938
 CG ITER, OVMR, OVMRUB =          25   14147.8828125   14415.0000000
 CG ITER, OVMR, OVMRUB =          26   14147.8769531   14392.7285156
 CG ITER, OVMR, OVMRUB =          27   14147.8769531   14392.7285156
OVLB =   14147.8769531 OVLUB =   14392.7285156 TIME =       3.2300000
